
Gurobi 13.0.2 (win64) logging started Thu Jul 23 06:29:07 2026

Set parameter LogFile to value "E:\codes\ExactEBRP\results\gf_cplex_equivalent_gurobi_replica_round28\runs\stage2__high_imbalance_seed5203__c3_replica__300s\external\native_logs\R.1.0.0.1.1_lp.gurobi.log"
Gurobi Optimizer version 13.0.2 build v13.0.2rc1 (win64 - Windows 10.0 (19045.2))

CPU model: 12th Gen Intel(R) Core(TM) i7-12700KF, instruction set [SSE2|AVX|AVX2]
Thread count: 12 physical cores, 20 logical processors, using up to 1 threads

Non-default parameters:
TimeLimit  1.6879205179999997e+02
MIPGap  0
MIPGapAbs  0
LogToConsole  0
Threads  1

Optimize a model with 11922 rows, 3380 columns and 67404 nonzeros (Min)
Model fingerprint: 0x0ca11184
Model has 21 linear objective coefficients
Coefficient statistics:
  Matrix range     [2e-02, 2e+04]
  Objective range  [2e-02, 1e+00]
  Bounds range     [6e-01, 4e+03]
  RHS range        [6e-01, 5e+04]

Presolve removed 1612 rows and 100 columns
Presolve time: 0.03s
Presolved: 10310 rows, 3281 columns, 53301 nonzeros

Iteration    Objective       Primal Inf.    Dual Inf.      Time
       0    9.3936670e-01   6.498420e+02   0.000000e+00      0s

Extra simplex iterations after uncrush: 1
    3509    2.0492240e+00   0.000000e+00   0.000000e+00      0s

Solved in 3509 iterations and 0.25 seconds (0.68 work units)
Optimal objective  2.049224021e+00

User-callback calls 3657, time in user-callback 0.00 sec
